NAME : random_16
COMMENT : 46 random nodes
TYPE : TSP
DIMENSION : 46
EDGE_WEIGHT_TYPE : EUC_2D
NODE_COORD_SECTION
1 -2344 -5758
2 6404 6118
3 3758 -140
4 -2913 3575
5 3598 5372
6 3292 -6141
7 -3606 -3851
8 383 -5585
9 -546 1033
10 4996 6074
11 5328 -984
12 -2513 2706
13 -4462 1494
14 5332 -5011
15 4662 559
16 -669 3444
17 716 -2177
18 4912 -912
19 6562 937
20 1474 7458
21 4273 1174
22 2948 -239
23 -3362 6349
24 -1751 1341
25 4684 6468
26 2653 432
27 -4659 -2195
28 83 -2244
29 -3404 -5849
30 -3338 -5401
31 4929 2558
32 2867 7380
33 2646 53
34 5060 -2150
35 -4244 7179
36 2265 325
37 1850 -5940
38 -6108 -3309
39 -2269 -2577
40 2343 3550
41 -4998 3100
42 -869 -3285
43 3432 7357
44 6607 -377
45 5915 223
46 51 4381
EOF